(set-logic BV) (define-fun origCir ((n151 Bool) (n325 Bool) (n254 Bool) (n207 Bool) (i47 Bool)) Bool (xor (and (xor n325 (not (and n254 n207))) n151) i47)) (synth-fun skel ((n151 Bool) (n325 Bool) (n254 Bool) (n207 Bool) (i47 Bool)) Bool) (declare-var n151 Bool) (declare-var n325 Bool) (declare-var n254 Bool) (declare-var n207 Bool) (declare-var i47 Bool) (constraint (= (origCir n151 n325 n254 n207 i47) (skel n151 n325 n254 n207 i47))) (check-synth)
